; tzinor/polyglot/arkhen.smt2
; Z3/SMT-LIB — Verificação de Satisfatibilidade, Otimização

; ═══════════════════════════════════════════════════════════════════
; DECLARAÇÕES DE TIPOS
; ═══════════════════════════════════════════════════════════════════

(declare-datatypes () ((Scale
  Quantum Atomic Biological Neural Planetary Stellar Galactic Cosmic)))

(declare-const s Scale)

; ═══════════════════════════════════════════════════════════════════
; COERÊNCIA COMO REALS
; ═══════════════════════════════════════════════════════════════════

(declare-const amplitude Real)  ; |Ω|
(declare-const phase Real)      ; θ

; Restrições de domínio
(assert (>= amplitude 0.0))
(assert (<= phase (* 2.0 3.14159265359)))

; ═══════════════════════════════════════════════════════════════════
; CONDIÇÃO DE RESSONÂNCIA
; ═══════════════════════════════════════════════════════════════════

(define-fun is_resonant () Bool
  (< (abs (- phase (/ 3.14159265359 2.0))) 0.1))

; ═══════════════════════════════════════════════════════════════════
; SUBSTRATO MITOCONDRIAL
; ═══════════════════════════════════════════════════════════════════

(declare-const deltaPsi Real)
(declare-const atp Real)
(declare-const ros Real)
(declare-const cristae Real)
(declare-const mtDNA Real)

; Restrições físicas
(assert (< deltaPsi 0))  ; Potencial negativo
(assert (> atp 0))
(assert (>= ros 0))
(assert (> cristae 0))
(assert (and (>= mtDNA 0.0) (<= mtDNA 1.0)))

; ═══════════════════════════════════════════════════════════════════
; PROBLEMA DE OTIMIZAÇÃO: Encontrar parâmetros para ressonância
; ═══════════════════════════════════════════════════════════════════

(push)
(assert is_resonant)
(assert (> amplitude 0.95))

(check-sat)
;(get-model)
(pop)
